40
1 0 57
2 0 40
2 1 36
3 0 52
3 1 37
3 2 36
4 0 23
4 1 48
4 2 55
4 3 5
5 0 29
5 1 11
5 2 26
5 3 20
5 4 35
6 0 16
6 1 22
6 2 9
6 3 30
6 4 57
6 5 29
7 0 38
7 1 44
7 2 50
7 3 13
7 4 19
7 5 11
7 6 48
8 0 6
8 1 26
8 2 35
8 3 41
8 4 34
8 5 16
8 6 14
8 7 30
9 0 32
9 1 59
9 2 22
9 3 8
9 4 31
9 5 15
9 6 19
9 7 34
9 8 12
10 0 24
10 1 53
10 2 8
10 3 30
10 4 23
10 5 5
10 6 13
10 7 46
10 8 17
10 9 56
11 0 27
11 1 37
11 2 21
11 3 47
11 4 24
11 5 23
11 6 59
11 7 45
11 8 5
11 9 27
11 10 46
12 0 58
12 1 9
12 2 44
12 3 50
12 4 44
12 5 16
12 6 4
12 7 57
12 8 57
12 9 2
12 10 28
12 11 7
13 0 9
13 1 48
13 2 19
13 3 38
13 4 19
13 5 54
13 6 8
13 7 59
13 8 7
13 9 7
13 10 15
13 11 48
13 12 10
14 0 45
14 1 42
14 2 58
14 3 39
14 4 22
14 5 10
14 6 29
14 7 23
14 8 58
14 9 38
14 10 41
14 11 57
14 12 27
14 13 26
15 0 56
15 1 40
15 2 29
15 3 18
15 4 60
15 5 38
15 6 4
15 7 5
15 8 30
15 9 39
15 10 30
15 11 8
15 12 20
15 13 24
15 14 33
16 0 15
16 1 55
16 2 39
16 3 3
16 4 7
16 5 32
16 6 34
16 7 58
16 8 13
16 9 23
16 10 35
16 11 8
16 12 59
16 13 50
16 14 58
16 15 47
17 0 26
17 1 5
17 2 33
17 3 43
17 4 41
17 5 24
17 6 49
17 7 51
17 8 5
17 9 22
17 10 32
17 11 14
17 12 41
17 13 56
17 14 49
17 15 4
17 16 39
18 0 21
18 1 45
18 2 1
18 3 27
18 4 54
18 5 25
18 6 13
18 7 5
18 8 25
18 9 4
18 10 16
18 11 46
18 12 47
18 13 12
18 14 35
18 15 48
18 16 55
18 17 18
19 0 48
19 1 18
19 2 59
19 3 20
19 4 42
19 5 24
19 6 49
19 7 18
19 8 28
19 9 54
19 10 46
19 11 20
19 12 50
19 13 20
19 14 34
19 15 5
19 16 26
19 17 15
19 18 45
20 0 47
20 1 41
20 2 60
20 3 54
20 4 43
20 5 49
20 6 13
20 7 35
20 8 21
20 9 48
20 10 1
20 11 56
20 12 10
20 13 29
20 14 30
20 15 6
20 16 53
20 17 8
20 18 55
20 19 4
21 0 4
21 1 7
21 2 1
21 3 36
21 4 39
21 5 26
21 6 52
21 7 14
21 8 18
21 9 24
21 10 38
21 11 42
21 12 40
21 13 42
21 14 55
21 15 1
21 16 37
21 17 30
21 18 34
21 19 19
21 20 22
22 0 26
22 1 18
22 2 4
22 3 53
22 4 37
22 5 10
22 6 10
22 7 6
22 8 5
22 9 11
22 10 19
22 11 37
22 12 1
22 13 18
22 14 22
22 15 9
22 16 10
22 17 33
22 18 38
22 19 57
22 20 51
22 21 14
23 0 36
23 1 33
23 2 38
23 3 27
23 4 8
23 5 59
23 6 39
23 7 5
23 8 25
23 9 17
23 10 56
23 11 24
23 12 3
23 13 34
23 14 35
23 15 39
23 16 8
23 17 28
23 18 14
23 19 17
23 20 14
23 21 21
23 22 23
24 0 58
24 1 38
24 2 50
24 3 28
24 4 9
24 5 5
24 6 25
24 7 56
24 8 7
24 9 2
24 10 12
24 11 24
24 12 41
24 13 16
24 14 9
24 15 41
24 16 55
24 17 9
24 18 15
24 19 37
24 20 39
24 21 53
24 22 37
24 23 38
25 0 42
25 1 48
25 2 15
25 3 34
25 4 49
25 5 17
25 6 12
25 7 9
25 8 3
25 9 57
25 10 9
25 11 22
25 12 56
25 13 19
25 14 49
25 15 24
25 16 38
25 17 40
25 18 35
25 19 48
25 20 10
25 21 27
25 22 20
25 23 28
25 24 58
26 0 58
26 1 18
26 2 3
26 3 44
26 4 10
26 5 34
26 6 22
26 7 18
26 8 19
26 9 23
26 10 36
26 11 46
26 12 9
26 13 27
26 14 29
26 15 22
26 16 18
26 17 58
26 18 51
26 19 31
26 20 55
26 21 53
26 22 59
26 23 24
26 24 44
26 25 51
27 0 59
27 1 48
27 2 10
27 3 40
27 4 44
27 5 54
27 6 56
27 7 22
27 8 29
27 9 39
27 10 33
27 11 6
27 12 3
27 13 36
27 14 32
27 15 24
27 16 54
27 17 24
27 18 12
27 19 47
27 20 3
27 21 21
27 22 26
27 23 30
27 24 16
27 25 48
27 26 42
28 0 56
28 1 55
28 2 8
28 3 19
28 4 6
28 5 48
28 6 42
28 7 43
28 8 1
28 9 31
28 10 57
28 11 9
28 12 7
28 13 15
28 14 40
28 15 6
28 16 52
28 17 8
28 18 54
28 19 25
28 20 17
28 21 29
28 22 10
28 23 50
28 24 1
28 25 34
28 26 2
28 27 23
29 0 5
29 1 46
29 2 51
29 3 9
29 4 42
29 5 11
29 6 37
29 7 51
29 8 27
29 9 14
29 10 9
29 11 40
29 12 58
29 13 30
29 14 54
29 15 8
29 16 52
29 17 8
29 18 7
29 19 48
29 20 26
29 21 35
29 22 25
29 23 29
29 24 26
29 25 10
29 26 40
29 27 52
29 28 10
30 0 4
30 1 54
30 2 46
30 3 17
30 4 39
30 5 48
30 6 46
30 7 17
30 8 4
30 9 32
30 10 31
30 11 49
30 12 49
30 13 29
30 14 16
30 15 39
30 16 28
30 17 54
30 18 14
30 19 33
30 20 49
30 21 26
30 22 50
30 23 9
30 24 17
30 25 19
30 26 10
30 27 33
30 28 1
30 29 27
31 0 2
31 1 15
31 2 26
31 3 48
31 4 16
31 5 35
31 6 51
31 7 47
31 8 32
31 9 4
31 10 28
31 11 28
31 12 38
31 13 54
31 14 1
31 15 60
31 16 48
31 17 43
31 18 43
31 19 29
31 20 3
31 21 32
31 22 20
31 23 57
31 24 3
31 25 8
31 26 30
31 27 33
31 28 15
31 29 32
31 30 46
32 0 2
32 1 17
32 2 14
32 3 43
32 4 53
32 5 60
32 6 29
32 7 16
32 8 50
32 9 20
32 10 34
32 11 18
32 12 43
32 13 1
32 14 60
32 15 39
32 16 54
32 17 60
32 18 10
32 19 25
32 20 24
32 21 49
32 22 35
32 23 19
32 24 50
32 25 26
32 26 4
32 27 14
32 28 46
32 29 14
32 30 22
32 31 12
33 0 45
33 1 17
33 2 57
33 3 33
33 4 28
33 5 54
33 6 16
33 7 14
33 8 46
33 9 15
33 10 24
33 11 1
33 12 18
33 13 29
33 14 3
33 15 18
33 16 6
33 17 31
33 18 22
33 19 3
33 20 30
33 21 49
33 22 47
33 23 36
33 24 3
33 25 21
33 26 13
33 27 39
33 28 16
33 29 48
33 30 5
33 31 31
33 32 38
34 0 44
34 1 58
34 2 38
34 3 58
34 4 12
34 5 59
34 6 52
34 7 8
34 8 7
34 9 10
34 10 50
34 11 44
34 12 10
34 13 25
34 14 41
34 15 15
34 16 16
34 17 50
34 18 49
34 19 45
34 20 48
34 21 22
34 22 30
34 23 12
34 24 8
34 25 14
34 26 27
34 27 51
34 28 12
34 29 39
34 30 49
34 31 23
34 32 51
34 33 31
35 0 2
35 1 49
35 2 47
35 3 19
35 4 31
35 5 4
35 6 50
35 7 19
35 8 20
35 9 4
35 10 1
35 11 51
35 12 9
35 13 34
35 14 51
35 15 15
35 16 3
35 17 2
35 18 21
35 19 42
35 20 13
35 21 26
35 22 22
35 23 7
35 24 21
35 25 44
35 26 36
35 27 49
35 28 30
35 29 14
35 30 45
35 31 24
35 32 40
35 33 19
35 34 34
36 0 32
36 1 8
36 2 14
36 3 46
36 4 10
36 5 41
36 6 43
36 7 6
36 8 22
36 9 56
36 10 46
36 11 57
36 12 16
36 13 36
36 14 3
36 15 22
36 16 9
36 17 19
36 18 24
36 19 18
36 20 10
36 21 24
36 22 29
36 23 36
36 24 6
36 25 35
36 26 51
36 27 48
36 28 55
36 29 40
36 30 38
36 31 59
36 32 20
36 33 45
36 34 44
36 35 11
37 0 40
37 1 12
37 2 21
37 3 4
37 4 12
37 5 44
37 6 58
37 7 47
37 8 30
37 9 13
37 10 21
37 11 24
37 12 60
37 13 7
37 14 7
37 15 22
37 16 47
37 17 29
37 18 56
37 19 32
37 20 40
37 21 12
37 22 17
37 23 6
37 24 41
37 25 48
37 26 35
37 27 19
37 28 49
37 29 47
37 30 59
37 31 43
37 32 23
37 33 39
37 34 54
37 35 34
37 36 40
38 0 59
38 1 37
38 2 26
38 3 23
38 4 3
38 5 6
38 6 5
38 7 22
38 8 1
38 9 54
38 10 25
38 11 25
38 12 37
38 13 60
38 14 57
38 15 13
38 16 60
38 17 49
38 18 53
38 19 41
38 20 54
38 21 41
38 22 9
38 23 19
38 24 30
38 25 37
38 26 37
38 27 27
38 28 41
38 29 20
38 30 38
38 31 4
38 32 19
38 33 19
38 34 20
38 35 6
38 36 57
38 37 2
39 0 32
39 1 4
39 2 60
39 3 13
39 4 17
39 5 33
39 6 28
39 7 44
39 8 57
39 9 54
39 10 28
39 11 56
39 12 52
39 13 2
39 14 12
39 15 55
39 16 45
39 17 23
39 18 25
39 19 29
39 20 21
39 21 21
39 22 18
39 23 39
39 24 4
39 25 39
39 26 60
39 27 52
39 28 36
39 29 28
39 30 55
39 31 25
39 32 47
39 33 34
39 34 60
39 35 40
39 36 5
39 37 28
39 38 41
